n_res = 5;
rcap = [15, 15, 17, 73, 84];
rtype = [1, 1, 1, 2, 2];
n_tasks = 16;
modes = [ {1, 2, 3}, {4, 5, 6}, {7, 8, 9}, {10, 11, 12}, {13, 14, 15}, {16, 17, 18}, {19, 20, 21}, {22, 23, 24}, {25, 26, 27}, {28, 29, 30}, {31, 32, 33}, {34, 35, 36}, {37, 38, 39}, {40, 41, 42}, {43, 44, 45}, {46, 47, 48} ];
succ = [ {5, 9}, {4, 8, 10}, {12, 14}, {7, 9, 14}, {6, 7, 11}, {13, 14}, {12, 13, 15}, {15, 16}, {11, 13, 15}, {11}, {12}, {16}, {16}, {}, {}, {} ];
n_opt = 48;
dur = [3, 5, 8, 1, 2, 6, 4, 4, 5, 4, 7, 10, 1, 1, 10, 8, 8, 9, 6, 6, 10, 6, 7, 9, 4, 5, 9, 5, 5, 9, 2, 8, 9, 1, 5, 6, 3, 3, 6, 2, 2, 3, 2, 5, 9, 2, 4, 6];
rreq = [|  5,  5,  2,  6,  5,  5,  6,  8,  5,  9,  8,  8,  7,  7,  7,  8,  6,  3,  8, 10,  3,  2,  2,  2,  6,  4,  4,  9,  9,  8,  7,  7,  5,  7,  6,  6,  4,  6,  3,  7, 10,  4,  6,  6,  5,  9,  8,  7
        |  5,  2,  2,  6,  6,  5,  2,  2,  1,  9,  9,  8,  8,  7,  7,  2,  3,  1,  9,  9,  8,  4,  4,  4,  9,  8,  6,  9, 10,  6,  8,  8,  8,  2,  2,  1,  7,  6,  3,  7,  7,  5,  5,  5,  5,  6,  3,  1
        |  6,  5,  5,  8,  4,  3,  2,  2,  2, 10, 10, 10,  9,  9,  8,  4,  4,  2, 10, 10,  9,  8,  8,  7,  9,  7,  5,  5,  5,  5,  5,  3,  2,  7,  7,  6,  9,  8,  6,  7,  7,  6,  9,  6,  4,  8,  4,  3
        |  0,  8,  0,  0,  0,  0,  0,  3,  0,  3,  0,  0,  3,  0,  0,  7,  7,  6,  0,  4,  0,  0,  0,  0,  8,  0,  0,  5,  0,  5,  0,  0,  4,  0,  7,  3,  0,  7,  0,  0,  5,  4,  5,  2,  0,  4,  3,  3
        |  7,  0,  4,  5,  5,  5,  5,  0,  4,  0,  6,  4,  0,  9,  5,  0,  0,  0,  8,  0,  7,  9,  8,  8,  0,  7,  4,  0,  3,  0,  9,  8,  0,  2,  0,  0,  9,  0,  9,  2,  0,  0,  0,  0,  3,  0,  0,  0 |];
